n_res = 4;
rc = [ 67, 69, 67, 67 ];
n_tasks = 90;
d = [ 8, 2, 1, 9, 2, 1, 7, 5, 9, 6, 9, 5, 9, 2, 5, 8, 3, 6, 3, 9, 2, 1, 1, 10, 7, 6, 1, 7, 8, 8, 2, 2, 10, 1, 6, 4, 9, 3, 7, 9, 1, 3, 1, 10, 4, 4, 5, 4, 6, 2, 2, 8, 5, 10, 1, 10, 1, 10, 1, 4, 8, 1, 1, 5, 1, 5, 1, 9, 4, 8, 1, 7, 6, 5, 10, 6, 4, 10, 4, 2, 3, 6, 2, 3, 3, 7, 1, 7, 8, 8 ];
rr = [| 10, 7, 5, 3, 9, 2, 3, 8, 5, 2, 2, 4, 7, 4, 2, 7, 9, 2, 7, 7, 6, 9, 8, 2, 8, 2, 2, 5, 9, 5, 10, 2, 7, 8, 7, 6, 8, 6, 3, 8, 1, 10, 7, 8, 6, 8, 3, 5, 1, 5, 8, 2, 5, 6, 9, 1, 5, 9, 10, 2, 7, 1, 3, 8, 9, 8, 10, 4, 4, 1, 8, 2, 10, 6, 3, 6, 8, 7, 1, 7, 3, 9, 5, 7, 10, 10, 1, 6, 4, 10
      | 3, 10, 3, 3, 8, 3, 2, 8, 7, 8, 2, 8, 8, 6, 8, 10, 3, 6, 1, 4, 8, 4, 9, 10, 2, 8, 1, 8, 7, 10, 6, 4, 5, 6, 6, 10, 6, 1, 9, 4, 10, 6, 6, 2, 7, 10, 7, 5, 5, 1, 7, 9, 3, 5, 5, 6, 5, 10, 9, 5, 3, 7, 7, 4, 1, 6, 10, 2, 2, 10, 5, 1, 2, 7, 4, 7, 4, 1, 7, 9, 3, 9, 3, 4, 1, 5, 4, 6, 8, 6
      | 1, 1, 3, 1, 5, 5, 2, 4, 1, 2, 3, 2, 2, 3, 6, 1, 5, 4, 10, 1, 1, 5, 7, 8, 6, 9, 3, 2, 5, 2, 4, 1, 6, 7, 9, 6, 3, 9, 10, 9, 10, 10, 4, 9, 5, 8, 7, 3, 5, 1, 10, 9, 9, 7, 4, 7, 5, 1, 6, 10, 8, 6, 5, 3, 4, 5, 2, 6, 7, 10, 8, 10, 2, 10, 2, 9, 1, 5, 10, 6, 10, 2, 2, 3, 3, 8, 4, 10, 10, 10
      | 2, 4, 7, 10, 7, 3, 5, 2, 9, 4, 10, 10, 7, 1, 3, 5, 2, 4, 4, 6, 8, 7, 9, 5, 2, 7, 8, 9, 5, 7, 2, 2, 8, 7, 7, 8, 10, 9, 1, 4, 6, 1, 5, 3, 7, 7, 7, 8, 6, 10, 5, 6, 4, 10, 8, 8, 2, 10, 6, 2, 6, 10, 8, 5, 8, 6, 7, 9, 6, 3, 3, 2, 3, 7, 4, 7, 1, 4, 5, 1, 8, 10, 5, 2, 4, 8, 1, 2, 2, 8 |];
suc = [ { 4, 5, 6 },
       { 14, 16, 24 },
       { 7, 8, 10 },
       { 26 },
       { 33, 59 },
       { 16 },
       { 9, 51 },
       { 11, 13, 15 },
       { 14, 30, 68 },
       { 17, 34, 84 },
       { 12, 28, 29 },
       { 36, 64, 85 },
       { 20, 43 },
       { 25 },
       { 23, 56 },
       { 19 },
       { 18 },
       { 31, 40 },
       { 21 },
       { 62 },
       { 22, 27, 48 },
       { 38 },
       { 44, 89 },
       { 37, 46, 86 },
       { 53 },
       { 41 },
       { 32, 50, 54 },
       { 35, 47 },
       { 42 },
       { 45, 73 },
       { 57 },
       { 83 },
       { 34, 39, 42 },
       { 82, 88 },
       { 63, 65, 75 },
       { 63 },
       { 80 },
       { 59 },
       { 61, 67, 69 },
       { 53, 58 },
       { 46, 81 },
       { 79 },
       { 66 },
       { 49 },
       { 58 },
       { 72 },
       { 54, 75 },
       { 52 },
       { 54 },
       { 57, 72 },
       { 73 },
       { 77 },
       { 55, 70 },
       { 58 },
       { 60, 66 },
       { 62, 65 },
       { 60 },
       { 76 },
       { 68 },
       { 85 },
       { 74 },
       { 85 },
       { 71 },
       { 72 },
       { 87 },
       { 69 },
       { 90 },
       { 76 },
       { 83 },
       { 81 },
       { 86 },
       { 84 },
       { 81 },
       { 86 },
       { 80 },
       { 78 },
       { 82 },
       { 79 },
       { 90 },
       { 82, 84 },
       { 87 },
       { 87 },
       { 88 },
       { 89 },
       { 89 },
       { 88 },
       { 90 },
       {  },
       {  },
       {  } ];
